NAME          
ROWS
	N  OBJ
	L  c1
	L  c2
	L  c3
	L  c4
COLUMNS
	x         c1        -25
	x         c2        1
	x         c3        2
	x         c4        -2
	x         OBJ       -1
	y         c1        20
	y         c2        2
	y         c3        -1
	y         c4        -10
	y         OBJ       -10
RHS
	B       c1        30
	B       c2        10
	B       c3        15
	B       c4        -15
RANGES
BOUNDS
	FR bounds    x
	FR bounds    y
ENDATA
	;